NAME : E1.238879579.tour
COMMENT : Cost = 0_238879579
COMMENT : Found by LKH [Keld Helsgaun] Sun Sep 10 07:53:51 2017
TYPE : TOUR
DIMENSION : 52
TOUR_SECTION
1
24
18
39
19
11
12
6
16
47
45
49
35
43
27
21
30
9
3
14
51
34
22
38
25
40
31
7
13
5
2
15
52
29
32
46
36
42
26
4
8
10
48
44
23
41
33
50
20
37
17
28
-1
EOF
